(set-info :smt-lib-version 2.6)
(set-info :category "crafted")
(set-logic QF_FFA)
(define-sort FF0 () (_ FiniteField 52435875175126190479447740508185965837690552500527637822603658699938581184513))
(declare-fun out_alt () FF0)
(declare-fun _10_alt () FF0)
(declare-fun _5_alt () FF0)
(declare-fun _9_alt () FF0)
(declare-fun _4_alt () FF0)
(declare-fun _8_alt () FF0)
(declare-fun _7_alt () FF0)
(declare-fun _2_alt () FF0)
(declare-fun _6_alt () FF0)
(declare-fun _1_alt () FF0)
(declare-fun _0_alt () FF0)
(declare-fun _3_alt () FF0)
(declare-fun out () FF0)
(declare-fun _10 () FF0)
(declare-fun _5 () FF0)
(declare-fun _9 () FF0)
(declare-fun _4 () FF0)
(declare-fun _8 () FF0)
(declare-fun _7 () FF0)
(declare-fun _2 () FF0)
(declare-fun _6 () FF0)
(declare-fun _1 () FF0)
(declare-fun _0 () FF0)
(declare-fun _3 () FF0)
(assert 
  (let ((let0 out_alt))
  (let ((let1 _10_alt))
  (let ((let2 (= let1 let0)))
  (let ((let3 _5_alt))
  (let ((let4 _9_alt))
  (let ((let5 (ff.mul let4 let3)))
  (let ((let6 (= let5 let1)))
  (let ((let7 _4_alt))
  (let ((let8 _8_alt))
  (let ((let9 (ff.mul let8 let7)))
  (let ((let10 (= let9 let4)))
  (let ((let11 _7_alt))
  (let ((let12 _2_alt))
  (let ((let13 _6_alt))
  (let ((let14 (ff.mul let13 let12)))
  (let ((let15 (= let14 let11)))
  (let ((let16 _1_alt))
  (let ((let17 _0_alt))
  (let ((let18 (ff.mul let17 let16)))
  (let ((let19 (= let18 let13)))
  (let ((let20 (ff.mul let3 let3)))
  (let ((let21 (= let20 let3)))
  (let ((let22 (ff.mul let7 let7)))
  (let ((let23 (= let22 let7)))
  (let ((let24 _3_alt))
  (let ((let25 (ff.mul let24 let24)))
  (let ((let26 (= let25 let24)))
  (let ((let27 (ff.mul let12 let12)))
  (let ((let28 (= let27 let12)))
  (let ((let29 (ff.mul let16 let16)))
  (let ((let30 (= let29 let16)))
  (let ((let31 (ff.mul let17 let17)))
  (let ((let32 (= let31 let17)))
  (let ((let33 (and let32 let30 let28 let26 let23 let21 let19 let15 let10 let6 let2)))
  (let ((let34 out))
  (let ((let35 _10))
  (let ((let36 (= let35 let34)))
  (let ((let37 _5))
  (let ((let38 _9))
  (let ((let39 (ff.mul let38 let37)))
  (let ((let40 (= let39 let35)))
  (let ((let41 _4))
  (let ((let42 _8))
  (let ((let43 (ff.mul let42 let41)))
  (let ((let44 (= let43 let38)))
  (let ((let45 _7))
  (let ((let46 _2))
  (let ((let47 _6))
  (let ((let48 (ff.mul let47 let46)))
  (let ((let49 (= let48 let45)))
  (let ((let50 _1))
  (let ((let51 _0))
  (let ((let52 (ff.mul let51 let50)))
  (let ((let53 (= let52 let47)))
  (let ((let54 (ff.mul let37 let37)))
  (let ((let55 (= let54 let37)))
  (let ((let56 (ff.mul let41 let41)))
  (let ((let57 (= let56 let41)))
  (let ((let58 _3))
  (let ((let59 (ff.mul let58 let58)))
  (let ((let60 (= let59 let58)))
  (let ((let61 (ff.mul let46 let46)))
  (let ((let62 (= let61 let46)))
  (let ((let63 (ff.mul let50 let50)))
  (let ((let64 (= let63 let50)))
  (let ((let65 (ff.mul let51 let51)))
  (let ((let66 (= let65 let51)))
  (let ((let67 (and let66 let64 let62 let60 let57 let55 let53 let49 let44 let40 let36)))
  (let ((let68 (= let34 let0)))
  (let ((let69 (not let68)))
  (let ((let70 (= let46 let12)))
  (let ((let71 (= let51 let17)))
  (let ((let72 (= let37 let3)))
  (let ((let73 (= let50 let16)))
  (let ((let74 (= let41 let7)))
  (let ((let75 (= let58 let24)))
  (let ((let76 (and let75 let74 let73 let72 let71 let70)))
  (let ((let77 (and let76 let69 let67 let33)))
  let77
))))))))))))))))))))))))))))))))))))))))))))))))))))))))))))))))))))))))))))))
)
(check-sat)
